CapLotSizing_PM/src/Instancias/NCLSLT/6i6p2m/NBB01.OUT
 CG ITER, OVMR, OVMRUB =           1    8696.7021484    6435.3994141
 CG ITER, OVMR, OVMRUB =           2    6435.3994141    6435.3994141
 CG ITER, OVMR, OVMRUB =           3    6360.4951172    6360.4951172
 CG ITER, OVMR, OVMRUB =           4    6360.4951172    6360.4951172
 CG ITER, OVMR, OVMRUB =           5    6360.4956055    6360.4951172
 CG ITER, OVMR, OVMRUB =           6    6318.5961914    6318.5952148
 CG ITER, OVMR, OVMRUB =           7    6318.5957031    6318.5952148
 CG ITER, OVMR, OVMRUB =           8    6318.5957031    6318.5952148
 CG ITER, OVMR, OVMRUB =           9    6315.5644531    6263.9956055
 CG ITER, OVMR, OVMRUB =          10    6315.5644531    6263.9956055
OVLB =    6315.5644531 OVLUB =    6263.9956055 TIME =       0.3200000
